CMPL model generation - running

CMPL version: 1.11.0
Authors: Thomas Schleiff, Mike Steglich
Distributed under the GPLv3 

create model instance ...
write model instance ...
CMPL model generation - finished

Solver - running


Welcome to IBM(R) ILOG(R) CPLEX(R) Interactive Optimizer 12.7.1.0
  with Simplex, Mixed Integer & Barrier Optimizers
5725-A06 5725-A29 5724-Y48 5724-Y49 5724-Y54 5724-Y55 5655-Y21
Copyright IBM Corp. 1988, 2017.  All Rights Reserved.

Type 'help' for a list of available commands.
Type 'help' followed by a command name for more
information on commands.

CPLEX> Specified objective sense: MINIMIZE
Selected objective  name:  line[1]
Selected RHS        name:  RHS
Selected bound      name:  BOUND
Problem '/tmp/cmpl.T24483.mps' read.
Read time = 0.05 sec. (8.18 ticks)
CPLEX> CPXPARAM_Read_APIEncoding                        "UTF-8"
Tried aggregator 3 times.
MIP Presolve eliminated 19135 rows and 30502 columns.
MIP Presolve modified 340 coefficients.
Aggregator did 694 substitutions.
Reduced MIP has 2526 rows, 3397 columns, and 9897 nonzeros.
Reduced MIP has 3229 binaries, 0 generals, 0 SOSs, and 0 indicators.
Presolve time = 0.05 sec. (40.67 ticks)
Found incumbent of value 1214.904817 after 0.10 sec. (66.16 ticks)
Probing fixed 16 vars, tightened 0 bounds.
Probing time = 0.01 sec. (4.47 ticks)
Tried aggregator 1 time.
MIP Presolve eliminated 0 rows and 16 columns.
MIP Presolve modified 87 coefficients.
Reduced MIP has 2526 rows, 3381 columns, and 9865 nonzeros.
Reduced MIP has 3381 binaries, 0 generals, 0 SOSs, and 0 indicators.
Presolve time = 0.01 sec. (8.41 ticks)
Probing time = 0.01 sec. (2.70 ticks)
Clique table members: 5998.
MIP emphasis: balance optimality and feasibility.
MIP search method: dynamic search.
Parallel mode: none, using 1 thread.
Root relaxation solution time = 0.01 sec. (6.05 ticks)

        Nodes                                         Cuts/
   Node  Left     Objective  IInf  Best Integer    Best Bound    ItCnt     Gap

*     0+    0                         1214.9048      -24.2415           102.00%
      0     0      330.7796     3     1214.9048      330.7796      236   72.77%
*     0+    0                          332.8126      330.7796             0.61%
*     0+    0                          330.8653      330.7796             0.03%
*     0     0      integral     0      330.8418       Cuts: 6      246    0.00%
      0     0        cutoff            330.8418      330.8418      246    0.00%
Elapsed time = 0.17 sec. (107.28 ticks, tree = 0.01 MB, solutions = 4)

GUB cover cuts applied:  1
Cover cuts applied:  3
Gomory fractional cuts applied:  2

Root node processing (before b&c):
  Real time             =    0.17 sec. (108.99 ticks)
Sequential b&c:
  Real time             =    0.00 sec. (0.00 ticks)
                          ------------
Total (root+branch&cut) =    0.17 sec. (108.99 ticks)

Solution pool: 4 solutions saved.

MIP - Integer optimal solution:  Objective =  3.3084179600e+02
Solution time =    0.17 sec.  Iterations = 246  Nodes = 0
Deterministic time = 109.09 ticks  (625.43 ticks/sec)

CPLEX> Incumbent solution written to file '/tmp/cmpl.T24483.gsol'.
CPLEX> 
CMPL: Time used for model generation: 1 seconds
CMPL: Time used for solving the model: 0 seconds


Solution written to ASCII file: results/output_generated_conf_0.7/2016-11-07-4/fair-nonlinear.sol

Solver - finished
